42
BMP+/trans-FTFSI- initial ion pair; RDKit/MMFF fragments; closest O...H=2.202 A; optimize in Gaussian
C   5.0161011256  0.7202452420  0.3518230653
C   3.7927448258  0.0143741633  0.9148762964
C   2.5342897338  0.3416576588  0.1074808054
C   1.3201184146 -0.3884070596  0.6850154352
N   0.0000000000  0.0000000000  0.0000000000
C   0.0237338211 -0.3462206617 -1.4854239169
C  -1.1726236308 -0.7651889067  0.6781366267
C  -1.9697594024  0.2986539147  1.4080188498
C  -1.8071748531  1.5205367552  0.5331496975
C  -0.3296170666  1.4946994193  0.2008703177
H   5.2030451228  0.4160183012 -0.6829776242
H   4.8861990843  1.8069892858  0.3726871799
H   5.9025673954  0.4726448710  0.9440813360
H   3.9675270373 -1.0678682862  0.9094130533
H   3.6535982204  0.3159558142  1.9596166177
H   2.3774739390  1.4256660228  0.1118503732
H   2.6991726981  0.0409469869 -0.9328700503
H   1.1998489720 -0.1642588421  1.7518437571
H   1.4327219651 -1.4728613478  0.5671092333
H   0.7758072118  0.2704465108 -1.9831078428
H  -0.9617357796 -0.1289517728 -1.9088092552
H   0.2605832645 -1.4091473775 -1.5856264701
H  -1.7727848971 -1.2378562577 -0.1070761922
H  -0.7750381405 -1.5362897385  1.3451595276
H  -3.0171899727  0.0117952230  1.5374143867
H  -1.5421778759  0.4784436286  2.4016388295
H  -2.0984816331  2.4422919374  1.0445139945
H  -2.4105285547  1.4284042939 -0.3774288301
H   0.2587632495  1.8601241541  1.0499036731
H  -0.0705430523  2.0549752171 -0.7023228265
F  -6.2112378995  1.6067734784 -0.5692707484
S  -5.1842166171  0.6969329950 -1.3914832953
O  -5.3798846789 -0.6019669042 -0.7528667769
O  -5.6982713584  0.7830898837 -2.7511519031
N  -3.7867710621  1.3573268581 -1.0946628477
S  -3.6317677450  2.8229247186 -1.6762221652
O  -4.7557565789  3.7422720590 -1.4811899545
O  -2.3443092636  3.4262933685 -1.3006775465
C  -3.4978365169  2.4940581833 -3.4898233881
F  -3.1026623811  1.2173037269 -3.7684745688
F  -4.6424114305  2.7385086778 -4.1837492569
F  -2.5481287821  3.2963751053 -4.0676812442
